(set-logic HORN)
(declare-fun state (Int Int (Array Int Int) Int Int (Array Int Int) Int Bool Bool Bool Int Int Int Int Int) Bool)
(assert (forall ((|A_6| Int) (|.y.7| Int) (|B_5| (Array Int Int)) (|C_5| Int) (|D_5| Int) (|E_5| (Array Int Int)) (|F_5| Int) (|.loc.8| Bool) (|.loc.9| Bool) (|.loc.10| Bool) (|N_2| Int) (|P_2| Int) (|R_1| Int) (|I_6| Int) (|I_7| Int) (|.loc.14| Bool) (|.loc.16| Bool) (|.loc.15| Bool) (|.x.23| Int) (|.x.22| (Array Int Int)) (|.x.21| Int) (|K_5| Int) (|.y.12| (Array Int Int)) (|.y.13| Int) (|.y.11| Int) (|.xtv.1| Int) (|.xtv.2| Int) (|.xtv.3| Int) (|.xtv.4| Int) (|.xpv.1| Int)) (=> (and (and (not .loc.8) (not .loc.9)) (not .loc.10)) (state |A_6| |.y.7| |B_5| |C_5| |D_5| |E_5| |F_5| |.loc.8| |.loc.9| |.loc.10| |N_2| |P_2| |R_1| |I_6| |I_7|))))
(assert (forall ((|A_6| Int) (|.y.7| Int) (|B_5| (Array Int Int)) (|C_5| Int) (|D_5| Int) (|E_5| (Array Int Int)) (|F_5| Int) (|.loc.8| Bool) (|.loc.9| Bool) (|.loc.10| Bool) (|N_2| Int) (|P_2| Int) (|R_1| Int) (|I_6| Int) (|I_7| Int) (|.loc.14| Bool) (|.loc.16| Bool) (|.loc.15| Bool) (|.x.23| Int) (|.x.22| (Array Int Int)) (|.x.21| Int) (|K_5| Int) (|.y.12| (Array Int Int)) (|.y.13| Int) (|.y.11| Int) (|.xtv.1| Int) (|.xtv.2| Int) (|.xtv.3| Int) (|.xtv.4| Int) (|.xpv.1| Int)) (=> (and (state |A_6| |.y.7| |B_5| |C_5| |D_5| |E_5| |F_5| |.loc.8| |.loc.9| |.loc.10| |N_2| |P_2| |R_1| |I_6| |I_7|) (let ((.def_25 (not .loc.8))) (let ((.def_26 (not .loc.9))) (let ((.def_28 (not .loc.10))) (let ((.def_31 (not .loc.14))) (let ((.def_35 (not .loc.15))) (let ((.def_43 (<= F_5 D_5))) (let ((.def_49 (= K_5 0))) (let ((.def_55 (not (<= I_6 0)))) (let ((.def_56 (<= A_6 0))) (let ((.def_73 (not .def_56))) (let ((.def_77 (= (+ C_5 (* (- 1) K_5)) (- 1)))) (let ((.def_80 (= A_6 .x.21))) (let ((.def_82 (= B_5 .x.22))) (let ((.def_84 (= D_5 .x.23))) (let ((.def_90 (and .loc.9 .def_28))) (let ((.def_96 (not .loc.16))) (let ((.def_99 (= E_5 .y.12))) (let ((.def_102 (<= F_5 C_5))) (let ((.def_106 (= F_5 .y.13))) (let ((.def_109 (<= C_5 0))) (let ((.def_111 (not (<= R_1 0)))) (let ((.def_124 (select B_5 N_2))) (let ((.def_143 (= .y.12 (store E_5 R_1 P_2)))) (let ((.def_149 (= (+ C_5 (+ D_5 (* (- 1) R_1))) 0))) (let ((.def_158 (not (<= N_2 0)))) (let ((.def_159 (or .def_56 .def_158))) (let ((.def_161 (= C_5 K_5))) (let ((.def_175 (<= D_5 A_6))) (let ((.def_181 (<= D_5 0))) (let ((.def_232 (<= .y.7 0))) (or (or (or (or (or (or (and (and (and .def_31 .loc.16) .def_35) (or (and .def_28 (and .loc.9 (and .loc.8 (and (and (= F_5 .x.23) (and (= E_5 .x.22) (and (= C_5 .x.21) .def_43))) .def_49)))) (and (and (and (and (or .def_55 .def_56) (and (and (and (not (<= D_5 C_5)) (and (= (+ A_6 (+ C_5 (* (- 1) I_6))) 0) (and (= C_5 (select B_5 I_6)) (and .def_25 (and .loc.10 .def_26))))) .def_73) .def_77)) .def_80) .def_82) .def_84))) (and (and (= D_5 K_5) (and (and (= .x.23 0) (and (and (and .def_82 (and .def_80 (and .def_25 (and .loc.15 (and .loc.14 .def_90))))) .def_96) .def_99)) .def_102)) .def_106)) (and (and (and (or .def_109 .def_111) (and (or .def_55 .def_109) (and (not .def_109) (and (= (+ C_5 (+ D_5 (* (- 1) I_6))) 0) (and (= (+ A_6 (+ D_5 (* (- 1) N_2))) 0) (and (= (+ P_2 (+ (* (- 1) (select E_5 I_6)) .def_124)) 0) (and (and (= (+ D_5 (* (- 1) .x.23)) (- 1)) (and (and .def_106 (and .def_96 (and .def_82 (and .def_80 (and .def_73 (and .loc.15 (and .loc.14 (and .def_28 (and .loc.9 (and .loc.8 (not .def_43))))))))))) .def_143)) .def_149))))))) .def_159) .def_161)) (and (= D_5 .y.13) (and (= C_5 .x.23) (and (= .y.7 .x.21) (and (and .def_99 (and .def_96 (and .def_82 (and .def_26 (and .def_31 (and .loc.15 (and .def_28 (and .loc.8 .def_49)))))))) .def_175))))) (and (or .def_111 .def_181) (and (not .def_102) (and (not .def_181) (and (= (+ A_6 (+ C_5 (* (- 1) N_2))) 0) (and (= (+ C_5 (+ (* (- 1) P_2) .def_124)) 0) (and .def_159 (and .def_149 (and .def_143 (and .def_106 (and .def_96 (and .def_84 (and .def_82 (and .def_80 (and .def_77 (and .def_73 (and .def_25 (and .def_31 (and .loc.15 .def_90))))))))))))))))))) (and (not (<= K_5 0)) (and (not (<= .y.11 0)) (and (not (<= .x.23 0)) (and (= .x.21 0) (and .def_96 (and .def_25 (and .def_26 (and .def_35 (and .def_28 .loc.14)))))))))) (and (= .y.7 .y.11) (and (or .def_158 .def_232) (and (not .def_175) (and (not .def_232) (and (= (+ A_6 (+ .y.7 (* (- 1) N_2))) 0) (and (= (+ A_6 (* (- 1) .x.21)) (- 1)) (and (= .x.22 (store B_5 N_2 42)) (and .def_161 (and .def_99 (and .def_96 (and .def_84 (and .def_26 (and .def_35 (and .loc.14 (and .loc.8 .def_28))))))))))))))))))))))))))))))))))))))))))))))) (state |.x.21| |.y.11| |.x.22| |K_5| |.x.23| |.y.12| |.y.13| |.loc.14| |.loc.15| |.loc.16| |.xtv.1| |.xtv.2| |.xtv.3| |.xtv.4| |.xpv.1|))))
(assert (forall ((|A_6| Int) (|.y.7| Int) (|B_5| (Array Int Int)) (|C_5| Int) (|D_5| Int) (|E_5| (Array Int Int)) (|F_5| Int) (|.loc.8| Bool) (|.loc.9| Bool) (|.loc.10| Bool) (|N_2| Int) (|P_2| Int) (|R_1| Int) (|I_6| Int) (|I_7| Int) (|.loc.14| Bool) (|.loc.16| Bool) (|.loc.15| Bool) (|.x.23| Int) (|.x.22| (Array Int Int)) (|.x.21| Int) (|K_5| Int) (|.y.12| (Array Int Int)) (|.y.13| Int) (|.y.11| Int) (|.xtv.1| Int) (|.xtv.2| Int) (|.xtv.3| Int) (|.xtv.4| Int) (|.xpv.1| Int)) (=> (state |A_6| |.y.7| |B_5| |C_5| |D_5| |E_5| |F_5| |.loc.8| |.loc.9| |.loc.10| |N_2| |P_2| |R_1| |I_6| |I_7|) (let ((.def_56 (<= A_6 0))) (not (and (and .loc.10 (and (not .loc.8) (not .loc.9))) (and (and (not (= C_5 (select B_5 I_7))) (and (and (not (<= D_5 C_5)) (not .def_56)) (= (+ A_6 (+ C_5 (* (- 1) I_7))) 0))) (or .def_56 (not (<= I_7 0))))))))))
(check-sat)
